job_count = 30 ;
duration = [|15, 9|11, 6|14, 9|9, 7|14, 9|19, 6|4, 7|2, 4|9, 7|10, 7|12, 7|7, 5|3, 7|15, 3|12, 9|19, 9|14, 9|11, 8|16, 6|2, 3|3, 9|9, 4|17, 5|6, 6|10, 1|9, 4|19, 4|12, 9|4, 9|15, 7|] ;
machine_count = 2 ;
cost = [|19, 23|13, 37|16, 31|15, 20|11, 30|12, 31|19, 30|18, 27|12, 31|17, 23|16, 39|17, 28|12, 26|17, 32|15, 30|17, 30|18, 23|13, 39|14, 29|13, 31|18, 24|10, 30|19, 35|10, 35|14, 21|10, 34|12, 27|10, 27|13, 23|10, 22|] ;
deadline = [75, 75, 75, 75, 75, 75, 75, 75, 75, 75, 75, 75, 75, 75, 75, 75, 75, 75, 75, 75, 75, 75, 75, 75, 75, 75, 75, 75, 75, 75] ;
release = [0, 0, 0, 0, 0, 0, 0, 0, 0, 0, 0, 0, 0, 0, 0, 0, 0, 0, 0, 0, 0, 0, 0, 0, 0, 0, 0, 0, 0, 0] ;
resource = [|5, 5|9, 9|2, 2|4, 4|2, 2|5, 5|4, 4|5, 5|9, 9|5, 5|4, 4|7, 7|9, 9|3, 3|2, 2|2, 2|3, 3|9, 9|7, 7|2, 2|8, 8|3, 3|2, 2|7, 7|6, 6|5, 5|7, 7|3, 3|8, 8|1, 1|] ;
capacities = [10, 10] ;
